(set-logic ALL)
(declare-const BAV1 Bool)
(declare-const BAV2 Bool)
(declare-const BAV3 Bool)
(declare-const GEN4 String)
(declare-const GEN3 String)
(declare-const GEN2 String)
(declare-const GEN1 Int)
(declare-fun x () String)
(declare-fun z () String)
(assert (= (str.len z) GEN1))
(assert (= (str.replace GEN2 z GEN3) x))
(declare-fun y () String)
(assert (= x (str.++ GEN4 y)))
(assert (= BAV1 (= (str.len z) GEN1)))
(assert (= BAV2 (= (str.replace GEN2 z GEN3) x)))
(assert (= BAV3 (= x (str.++ GEN4 y))))
(check-sat)
(get-model)